* #variable= 40 #constraint= 1 #product= 2013 sizeproduct= 6254
min: +64 x1 x2 x3 x4 +64 x1 x2 x4 x5 +64 x1 x2 x5 x6 +64 x1 x2 x6 x7 +64 x1 x2 x7 x8 +64 x1 x2 x8 x9 +64 x1 x2 x9 x10 +64 x1 x3 x4 x6 +64 x1 x3 x5 x7 +64 x1 x3 x6 x8 +64 x1 x3 x7 x9 +64 x1 x3 x8 x10 +64 x1 x4 x5 x8 +64 x1 x4 x6 x9 +64 x1 x4 x7 x10 +64 x1 x5 x6 x10 +128 x2 x3 x4 x5 +128 x2 x3 x5 x6 +128 x2 x3 x6 x7 +128 x2 x3 x7 x8 +128 x2 x3 x8 x9 +128 x2 x3 x9 x10 +64 x2 x3 x10 x11 +128 x2 x4 x5 x7 +128 x2 x4 x6 x8 +128 x2 x4 x7 x9 +128 x2 x4 x8 x10 +64 x2 x4 x9 x11 +128 x2 x5 x6 x9 +128 x2 x5 x7 x10 +64 x2 x5 x8 x11 +64 x2 x6 x7 x11 +192 x3 x4 x5 x6 +192 x3 x4 x6 x7 +192 x3 x4 x7 x8 +192 x3 x4 x8 x9 +192 x3 x4 x9 x10 +128 x3 x4 x10 x11 +64 x3 x4 x11 x12 +192 x3 x5 x6 x8 +192 x3 x5 x7 x9 +192 x3 x5 x8 x10 +128 x3 x5 x9 x11 +64 x3 x5 x10 x12 +192 x3 x6 x7 x10 +128 x3 x6 x8 x11 +64 x3 x6 x9 x12 +64 x3 x7 x8 x12 +256 x4 x5 x6 x7 +256 x4 x5 x7 x8 +256 x4 x5 x8 x9 +256 x4 x5 x9 x10 +192 x4 x5 x10 x11 +128 x4 x5 x11 x12 +64 x4 x5 x12 x13 +256 x4 x6 x7 x9 +256 x4 x6 x8 x10 +192 x4 x6 x9 x11 +128 x4 x6 x10 x12 +64 x4 x6 x11 x13 +192 x4 x7 x8 x11 +128 x4 x7 x9 x12 +64 x4 x7 x10 x13 +64 x4 x8 x9 x13 +320 x5 x6 x7 x8 +320 x5 x6 x8 x9 +320 x5 x6 x9 x10 +256 x5 x6 x10 x11 +192 x5 x6 x11 x12 +128 x5 x6 x12 x13 +64 x5 x6 x13 x14 +320 x5 x7 x8 x10 +256 x5 x7 x9 x11 +192 x5 x7 x10 x12 +128 x5 x7 x11 x13 +64 x5 x7 x12 x14 +192 x5 x8 x9 x12 +128 x5 x8 x10 x13 +64 x5 x8 x11 x14 +64 x5 x9 x10 x14 +384 x6 x7 x8 x9 +384 x6 x7 x9 x10 +320 x6 x7 x10 x11 +256 x6 x7 x11 x12 +192 x6 x7 x12 x13 +128 x6 x7 x13 x14 +64 x6 x7 x14 x15 +320 x6 x8 x9 x11 +256 x6 x8 x10 x12 +192 x6 x8 x11 x13 +128 x6 x8 x12 x14 +64 x6 x8 x13 x15 +192 x6 x9 x10 x13 +128 x6 x9 x11 x14 +64 x6 x9 x12 x15 +64 x6 x10 x11 x15 +448 x7 x8 x9 x10 +384 x7 x8 x10 x11 +320 x7 x8 x11 x12 +256 x7 x8 x12 x13 +192 x7 x8 x13 x14 +128 x7 x8 x14 x15 +64 x7 x8 x15 x16 +320 x7 x9 x10 x12 +256 x7 x9 x11 x13 +192 x7 x9 x12 x14 +128 x7 x9 x13 x15 +64 x7 x9 x14 x16 +192 x7 x10 x11 x14 +128 x7 x10 x12 x15 +64 x7 x10 x13 x16 +64 x7 x11 x12 x16 +448 x8 x9 x10 x11 +384 x8 x9 x11 x12 +320 x8 x9 x12 x13 +256 x8 x9 x13 x14 +192 x8 x9 x14 x15 +128 x8 x9 x15 x16 +64 x8 x9 x16 x17 +320 x8 x10 x11 x13 +256 x8 x10 x12 x14 +192 x8 x10 x13 x15 +128 x8 x10 x14 x16 +64 x8 x10 x15 x17 +192 x8 x11 x12 x15 +128 x8 x11 x13 x16 +64 x8 x11 x14 x17 +64 x8 x12 x13 x17 +448 x9 x10 x11 x12 +384 x9 x10 x12 x13 +320 x9 x10 x13 x14 +256 x9 x10 x14 x15 +192 x9 x10 x15 x16 +128 x9 x10 x16 x17 +64 x9 x10 x17 x18 +320 x9 x11 x12 x14 +256 x9 x11 x13 x15 +192 x9 x11 x14 x16 +128 x9 x11 x15 x17 +64 x9 x11 x16 x18 +192 x9 x12 x13 x16 +128 x9 x12 x14 x17 +64 x9 x12 x15 x18 +64 x9 x13 x14 x18 +448 x10 x11 x12 x13 +384 x10 x11 x13 x14 +320 x10 x11 x14 x15 +256 x10 x11 x15 x16 +192 x10 x11 x16 x17 +128 x10 x11 x17 x18 +64 x10 x11 x18 x19 +320 x10 x12 x13 x15 +256 x10 x12 x14 x16 +192 x10 x12 x15 x17 +128 x10 x12 x16 x18 +64 x10 x12 x17 x19 +192 x10 x13 x14 x17 +128 x10 x13 x15 x18 +64 x10 x13 x16 x19 +64 x10 x14 x15 x19 +448 x11 x12 x13 x14 +384 x11 x12 x14 x15 +320 x11 x12 x15 x16 +256 x11 x12 x16 x17 +192 x11 x12 x17 x18 +128 x11 x12 x18 x19 +64 x11 x12 x19 x20 +320 x11 x13 x14 x16 +256 x11 x13 x15 x17 +192 x11 x13 x16 x18 +128 x11 x13 x17 x19 +64 x11 x13 x18 x20 +192 x11 x14 x15 x18 +128 x11 x14 x16 x19 +64 x11 x14 x17 x20 +64 x11 x15 x16 x20 +448 x12 x13 x14 x15 +384 x12 x13 x15 x16 +320 x12 x13 x16 x17 +256 x12 x13 x17 x18 +192 x12 x13 x18 x19 +128 x12 x13 x19 x20 +64 x12 x13 x20 x21 +320 x12 x14 x15 x17 +256 x12 x14 x16 x18 +192 x12 x14 x17 x19 +128 x12 x14 x18 x20 +64 x12 x14 x19 x21 +192 x12 x15 x16 x19 +128 x12 x15 x17 x20 +64 x12 x15 x18 x21 +64 x12 x16 x17 x21 +448 x13 x14 x15 x16 +384 x13 x14 x16 x17 +320 x13 x14 x17 x18 +256 x13 x14 x18 x19 +192 x13 x14 x19 x20 +128 x13 x14 x20 x21 +64 x13 x14 x21 x22 +320 x13 x15 x16 x18 +256 x13 x15 x17 x19 +192 x13 x15 x18 x20 +128 x13 x15 x19 x21 +64 x13 x15 x20 x22 +192 x13 x16 x17 x20 +128 x13 x16 x18 x21 +64 x13 x16 x19 x22 +64 x13 x17 x18 x22 +448 x14 x15 x16 x17 +384 x14 x15 x17 x18 +320 x14 x15 x18 x19 +256 x14 x15 x19 x20 +192 x14 x15 x20 x21 +128 x14 x15 x21 x22 +64 x14 x15 x22 x23 +320 x14 x16 x17 x19 +256 x14 x16 x18 x20 +192 x14 x16 x19 x21 +128 x14 x16 x20 x22 +64 x14 x16 x21 x23 +192 x14 x17 x18 x21 +128 x14 x17 x19 x22 +64 x14 x17 x20 x23 +64 x14 x18 x19 x23 +448 x15 x16 x17 x18 +384 x15 x16 x18 x19 +320 x15 x16 x19 x20 +256 x15 x16 x20 x21 +192 x15 x16 x21 x22 +128 x15 x16 x22 x23 +64 x15 x16 x23 x24 +320 x15 x17 x18 x20 +256 x15 x17 x19 x21 +192 x15 x17 x20 x22 +128 x15 x17 x21 x23 +64 x15 x17 x22 x24 +192 x15 x18 x19 x22 +128 x15 x18 x20 x23 +64 x15 x18 x21 x24 +64 x15 x19 x20 x24 +448 x16 x17 x18 x19 +384 x16 x17 x19 x20 +320 x16 x17 x20 x21 +256 x16 x17 x21 x22 +192 x16 x17 x22 x23 +128 x16 x17 x23 x24 +64 x16 x17 x24 x25 +320 x16 x18 x19 x21 +256 x16 x18 x20 x22 +192 x16 x18 x21 x23 +128 x16 x18 x22 x24 +64 x16 x18 x23 x25 +192 x16 x19 x20 x23 +128 x16 x19 x21 x24 +64 x16 x19 x22 x25 +64 x16 x20 x21 x25 +448 x17 x18 x19 x20 +384 x17 x18 x20 x21 +320 x17 x18 x21 x22 +256 x17 x18 x22 x23 +192 x17 x18 x23 x24 +128 x17 x18 x24 x25 +64 x17 x18 x25 x26 +320 x17 x19 x20 x22 +256 x17 x19 x21 x23 +192 x17 x19 x22 x24 +128 x17 x19 x23 x25 +64 x17 x19 x24 x26 +192 x17 x20 x21 x24 +128 x17 x20 x22 x25 +64 x17 x20 x23 x26 +64 x17 x21 x22 x26 +448 x18 x19 x20 x21 +384 x18 x19 x21 x22 +320 x18 x19 x22 x23 +256 x18 x19 x23 x24 +192 x18 x19 x24 x25 +128 x18 x19 x25 x26 +64 x18 x19 x26 x27 +320 x18 x20 x21 x23 +256 x18 x20 x22 x24 +192 x18 x20 x23 x25 +128 x18 x20 x24 x26 +64 x18 x20 x25 x27 +192 x18 x21 x22 x25 +128 x18 x21 x23 x26 +64 x18 x21 x24 x27 +64 x18 x22 x23 x27 +448 x19 x20 x21 x22 +384 x19 x20 x22 x23 +320 x19 x20 x23 x24 +256 x19 x20 x24 x25 +192 x19 x20 x25 x26 +128 x19 x20 x26 x27 +64 x19 x20 x27 x28 +320 x19 x21 x22 x24 +256 x19 x21 x23 x25 +192 x19 x21 x24 x26 +128 x19 x21 x25 x27 +64 x19 x21 x26 x28 +192 x19 x22 x23 x26 +128 x19 x22 x24 x27 +64 x19 x22 x25 x28 +64 x19 x23 x24 x28 +448 x20 x21 x22 x23 +384 x20 x21 x23 x24 +320 x20 x21 x24 x25 +256 x20 x21 x25 x26 +192 x20 x21 x26 x27 +128 x20 x21 x27 x28 +64 x20 x21 x28 x29 +320 x20 x22 x23 x25 +256 x20 x22 x24 x26 +192 x20 x22 x25 x27 +128 x20 x22 x26 x28 +64 x20 x22 x27 x29 +192 x20 x23 x24 x27 +128 x20 x23 x25 x28 +64 x20 x23 x26 x29 +64 x20 x24 x25 x29 +448 x21 x22 x23 x24 +384 x21 x22 x24 x25 +320 x21 x22 x25 x26 +256 x21 x22 x26 x27 +192 x21 x22 x27 x28 +128 x21 x22 x28 x29 +64 x21 x22 x29 x30 +320 x21 x23 x24 x26 +256 x21 x23 x25 x27 +192 x21 x23 x26 x28 +128 x21 x23 x27 x29 +64 x21 x23 x28 x30 +192 x21 x24 x25 x28 +128 x21 x24 x26 x29 +64 x21 x24 x27 x30 +64 x21 x25 x26 x30 +448 x22 x23 x24 x25 +384 x22 x23 x25 x26 +320 x22 x23 x26 x27 +256 x22 x23 x27 x28 +192 x22 x23 x28 x29 +128 x22 x23 x29 x30 +64 x22 x23 x30 x31 +320 x22 x24 x25 x27 +256 x22 x24 x26 x28 +192 x22 x24 x27 x29 +128 x22 x24 x28 x30 +64 x22 x24 x29 x31 +192 x22 x25 x26 x29 +128 x22 x25 x27 x30 +64 x22 x25 x28 x31 +64 x22 x26 x27 x31 +448 x23 x24 x25 x26 +384 x23 x24 x26 x27 +320 x23 x24 x27 x28 +256 x23 x24 x28 x29 +192 x23 x24 x29 x30 +128 x23 x24 x30 x31 +64 x23 x24 x31 x32 +320 x23 x25 x26 x28 +256 x23 x25 x27 x29 +192 x23 x25 x28 x30 +128 x23 x25 x29 x31 +64 x23 x25 x30 x32 +192 x23 x26 x27 x30 +128 x23 x26 x28 x31 +64 x23 x26 x29 x32 +64 x23 x27 x28 x32 +448 x24 x25 x26 x27 +384 x24 x25 x27 x28 +320 x24 x25 x28 x29 +256 x24 x25 x29 x30 +192 x24 x25 x30 x31 +128 x24 x25 x31 x32 +64 x24 x25 x32 x33 +320 x24 x26 x27 x29 +256 x24 x26 x28 x30 +192 x24 x26 x29 x31 +128 x24 x26 x30 x32 +64 x24 x26 x31 x33 +192 x24 x27 x28 x31 +128 x24 x27 x29 x32 +64 x24 x27 x30 x33 +64 x24 x28 x29 x33 +448 x25 x26 x27 x28 +384 x25 x26 x28 x29 +320 x25 x26 x29 x30 +256 x25 x26 x30 x31 +192 x25 x26 x31 x32 +128 x25 x26 x32 x33 +64 x25 x26 x33 x34 +320 x25 x27 x28 x30 +256 x25 x27 x29 x31 +192 x25 x27 x30 x32 +128 x25 x27 x31 x33 +64 x25 x27 x32 x34 +192 x25 x28 x29 x32 +128 x25 x28 x30 x33 +64 x25 x28 x31 x34 +64 x25 x29 x30 x34 +448 x26 x27 x28 x29 +384 x26 x27 x29 x30 +320 x26 x27 x30 x31 +256 x26 x27 x31 x32 +192 x26 x27 x32 x33 +128 x26 x27 x33 x34 +64 x26 x27 x34 x35 +320 x26 x28 x29 x31 +256 x26 x28 x30 x32 +192 x26 x28 x31 x33 +128 x26 x28 x32 x34 +64 x26 x28 x33 x35 +192 x26 x29 x30 x33 +128 x26 x29 x31 x34 +64 x26 x29 x32 x35 +64 x26 x30 x31 x35 +448 x27 x28 x29 x30 +384 x27 x28 x30 x31 +320 x27 x28 x31 x32 +256 x27 x28 x32 x33 +192 x27 x28 x33 x34 +128 x27 x28 x34 x35 +64 x27 x28 x35 x36 +320 x27 x29 x30 x32 +256 x27 x29 x31 x33 +192 x27 x29 x32 x34 +128 x27 x29 x33 x35 +64 x27 x29 x34 x36 +192 x27 x30 x31 x34 +128 x27 x30 x32 x35 +64 x27 x30 x33 x36 +64 x27 x31 x32 x36 +448 x28 x29 x30 x31 +384 x28 x29 x31 x32 +320 x28 x29 x32 x33 +256 x28 x29 x33 x34 +192 x28 x29 x34 x35 +128 x28 x29 x35 x36 +64 x28 x29 x36 x37 +320 x28 x30 x31 x33 +256 x28 x30 x32 x34 +192 x28 x30 x33 x35 +128 x28 x30 x34 x36 +64 x28 x30 x35 x37 +192 x28 x31 x32 x35 +128 x28 x31 x33 x36 +64 x28 x31 x34 x37 +64 x28 x32 x33 x37 +448 x29 x30 x31 x32 +384 x29 x30 x32 x33 +320 x29 x30 x33 x34 +256 x29 x30 x34 x35 +192 x29 x30 x35 x36 +128 x29 x30 x36 x37 +64 x29 x30 x37 x38 +320 x29 x31 x32 x34 +256 x29 x31 x33 x35 +192 x29 x31 x34 x36 +128 x29 x31 x35 x37 +64 x29 x31 x36 x38 +192 x29 x32 x33 x36 +128 x29 x32 x34 x37 +64 x29 x32 x35 x38 +64 x29 x33 x34 x38 +448 x30 x31 x32 x33 +384 x30 x31 x33 x34 +320 x30 x31 x34 x35 +256 x30 x31 x35 x36 +192 x30 x31 x36 x37 +128 x30 x31 x37 x38 +64 x30 x31 x38 x39 +320 x30 x32 x33 x35 +256 x30 x32 x34 x36 +192 x30 x32 x35 x37 +128 x30 x32 x36 x38 +64 x30 x32 x37 x39 +192 x30 x33 x34 x37 +128 x30 x33 x35 x38 +64 x30 x33 x36 x39 +64 x30 x34 x35 x39 +448 x31 x32 x33 x34 +384 x31 x32 x34 x35 +320 x31 x32 x35 x36 +256 x31 x32 x36 x37 +192 x31 x32 x37 x38 +128 x31 x32 x38 x39 +64 x31 x32 x39 x40 +320 x31 x33 x34 x36 +256 x31 x33 x35 x37 +192 x31 x33 x36 x38 +128 x31 x33 x37 x39 +64 x31 x33 x38 x40 +192 x31 x34 x35 x38 +128 x31 x34 x36 x39 +64 x31 x34 x37 x40 +64 x31 x35 x36 x40 +384 x32 x33 x34 x35 +320 x32 x33 x35 x36 +256 x32 x33 x36 x37 +192 x32 x33 x37 x38 +128 x32 x33 x38 x39 +64 x32 x33 x39 x40 +256 x32 x34 x35 x37 +192 x32 x34 x36 x38 +128 x32 x34 x37 x39 +64 x32 x34 x38 x40 +128 x32 x35 x36 x39 +64 x32 x35 x37 x40 +320 x33 x34 x35 x36 +256 x33 x34 x36 x37 +192 x33 x34 x37 x38 +128 x33 x34 x38 x39 +64 x33 x34 x39 x40 +192 x33 x35 x36 x38 +128 x33 x35 x37 x39 +64 x33 x35 x38 x40 +64 x33 x36 x37 x40 +256 x34 x35 x36 x37 +192 x34 x35 x37 x38 +128 x34 x35 x38 x39 +64 x34 x35 x39 x40 +128 x34 x36 x37 x39 +64 x34 x36 x38 x40 +192 x35 x36 x37 x38 +128 x35 x36 x38 x39 +64 x35 x36 x39 x40 +64 x35 x37 x38 x40 +128 x36 x37 x38 x39 +64 x36 x37 x39 x40 +64 x37 x38 x39 x40 -32 x1 x2 x3 -64 x1 x2 x4 -64 x1 x2 x5 -64 x1 x2 x6 -64 x1 x2 x7 -64 x1 x2 x8 -64 x1 x2 x9 -32 x1 x2 x10 -64 x1 x3 x4 -32 x1 x3 x5 -64 x1 x3 x6 -64 x1 x3 x7 -64 x1 x3 x8 -32 x1 x3 x9 -32 x1 x3 x10 -64 x1 x4 x5 -64 x1 x4 x6 -32 x1 x4 x7 -32 x1 x4 x8 -32 x1 x4 x9 -32 x1 x4 x10 -64 x1 x5 x6 -32 x1 x5 x7 -32 x1 x5 x8 -32 x1 x5 x10 -32 x1 x6 x7 -32 x1 x6 x8 -32 x1 x6 x9 -32 x1 x6 x10 -32 x1 x7 x8 -32 x1 x7 x9 -32 x1 x7 x10 -32 x1 x8 x9 -32 x1 x8 x10 -32 x1 x9 x10 -96 x2 x3 x4 -128 x2 x3 x5 -128 x2 x3 x6 -128 x2 x3 x7 -128 x2 x3 x8 -128 x2 x3 x9 -96 x2 x3 x10 -32 x2 x3 x11 -160 x2 x4 x5 -64 x2 x4 x6 -128 x2 x4 x7 -128 x2 x4 x8 -96 x2 x4 x9 -64 x2 x4 x10 -32 x2 x4 x11 -160 x2 x5 x6 -128 x2 x5 x7 -32 x2 x5 x8 -64 x2 x5 x9 -64 x2 x5 x10 -32 x2 x5 x11 -128 x2 x6 x7 -64 x2 x6 x8 -64 x2 x6 x9 -32 x2 x6 x11 -96 x2 x7 x8 -64 x2 x7 x9 -64 x2 x7 x10 -32 x2 x7 x11 -96 x2 x8 x9 -64 x2 x8 x10 -32 x2 x8 x11 -96 x2 x9 x10 -32 x2 x9 x11 -32 x2 x10 x11 -160 x3 x4 x5 -224 x3 x4 x6 -192 x3 x4 x7 -192 x3 x4 x8 -192 x3 x4 x9 -160 x3 x4 x10 -96 x3 x4 x11 -32 x3 x4 x12 -256 x3 x5 x6 -128 x3 x5 x7 -192 x3 x5 x8 -160 x3 x5 x9 -128 x3 x5 x10 -64 x3 x5 x11 -32 x3 x5 x12 -256 x3 x6 x7 -192 x3 x6 x8 -32 x3 x6 x9 -96 x3 x6 x10 -64 x3 x6 x11 -32 x3 x6 x12 -192 x3 x7 x8 -128 x3 x7 x9 -96 x3 x7 x10 -32 x3 x7 x12 -160 x3 x8 x9 -128 x3 x8 x10 -64 x3 x8 x11 -32 x3 x8 x12 -160 x3 x9 x10 -64 x3 x9 x11 -32 x3 x9 x12 -96 x3 x10 x11 -32 x3 x10 x12 -32 x3 x11 x12 -224 x4 x5 x6 -320 x4 x5 x7 -288 x4 x5 x8 -256 x4 x5 x9 -224 x4 x5 x10 -160 x4 x5 x11 -96 x4 x5 x12 -32 x4 x5 x13 -352 x4 x6 x7 -192 x4 x6 x8 -256 x4 x6 x9 -192 x4 x6 x10 -128 x4 x6 x11 -64 x4 x6 x12 -32 x4 x6 x13 -320 x4 x7 x8 -256 x4 x7 x9 -64 x4 x7 x10 -96 x4 x7 x11 -64 x4 x7 x12 -32 x4 x7 x13 -256 x4 x8 x9 -192 x4 x8 x10 -96 x4 x8 x11 -32 x4 x8 x13 -224 x4 x9 x10 -128 x4 x9 x11 -64 x4 x9 x12 -32 x4 x9 x13 -160 x4 x10 x11 -64 x4 x10 x12 -32 x4 x10 x13 -96 x4 x11 x12 -32 x4 x11 x13 -32 x4 x12 x13 -288 x5 x6 x7 -416 x5 x6 x8 -384 x5 x6 x9 -320 x5 x6 x10 -224 x5 x6 x11 -160 x5 x6 x12 -96 x5 x6 x13 -32 x5 x6 x14 -448 x5 x7 x8 -224 x5 x7 x9 -320 x5 x7 x10 -192 x5 x7 x11 -128 x5 x7 x12 -64 x5 x7 x13 -32 x5 x7 x14 -384 x5 x8 x9 -320 x5 x8 x10 -64 x5 x8 x11 -96 x5 x8 x12 -64 x5 x8 x13 -32 x5 x8 x14 -320 x5 x9 x10 -192 x5 x9 x11 -96 x5 x9 x12 -32 x5 x9 x14 -224 x5 x10 x11 -128 x5 x10 x12 -64 x5 x10 x13 -32 x5 x10 x14 -160 x5 x11 x12 -64 x5 x11 x13 -32 x5 x11 x14 -96 x5 x12 x13 -32 x5 x12 x14 -32 x5 x13 x14 -352 x6 x7 x8 -512 x6 x7 x9 -448 x6 x7 x10 -320 x6 x7 x11 -224 x6 x7 x12 -160 x6 x7 x13 -96 x6 x7 x14 -32 x6 x7 x15 -512 x6 x8 x9 -256 x6 x8 x10 -320 x6 x8 x11 -192 x6 x8 x12 -128 x6 x8 x13 -64 x6 x8 x14 -32 x6 x8 x15 -448 x6 x9 x10 -320 x6 x9 x11 -64 x6 x9 x12 -96 x6 x9 x13 -64 x6 x9 x14 -32 x6 x9 x15 -320 x6 x10 x11 -192 x6 x10 x12 -96 x6 x10 x13 -32 x6 x10 x15 -224 x6 x11 x12 -128 x6 x11 x13 -64 x6 x11 x14 -32 x6 x11 x15 -160 x6 x12 x13 -64 x6 x12 x14 -32 x6 x12 x15 -96 x6 x13 x14 -32 x6 x13 x15 -32 x6 x14 x15 -416 x7 x8 x9 -576 x7 x8 x10 -448 x7 x8 x11 -320 x7 x8 x12 -224 x7 x8 x13 -160 x7 x8 x14 -96 x7 x8 x15 -32 x7 x8 x16 -576 x7 x9 x10 -256 x7 x9 x11 -320 x7 x9 x12 -192 x7 x9 x13 -128 x7 x9 x14 -64 x7 x9 x15 -32 x7 x9 x16 -448 x7 x10 x11 -320 x7 x10 x12 -64 x7 x10 x13 -96 x7 x10 x14 -64 x7 x10 x15 -32 x7 x10 x16 -320 x7 x11 x12 -192 x7 x11 x13 -96 x7 x11 x14 -32 x7 x11 x16 -224 x7 x12 x13 -128 x7 x12 x14 -64 x7 x12 x15 -32 x7 x12 x16 -160 x7 x13 x14 -64 x7 x13 x15 -32 x7 x13 x16 -96 x7 x14 x15 -32 x7 x14 x16 -32 x7 x15 x16 -448 x8 x9 x10 -576 x8 x9 x11 -448 x8 x9 x12 -320 x8 x9 x13 -224 x8 x9 x14 -160 x8 x9 x15 -96 x8 x9 x16 -32 x8 x9 x17 -576 x8 x10 x11 -256 x8 x10 x12 -320 x8 x10 x13 -192 x8 x10 x14 -128 x8 x10 x15 -64 x8 x10 x16 -32 x8 x10 x17 -448 x8 x11 x12 -320 x8 x11 x13 -64 x8 x11 x14 -96 x8 x11 x15 -64 x8 x11 x16 -32 x8 x11 x17 -320 x8 x12 x13 -192 x8 x12 x14 -96 x8 x12 x15 -32 x8 x12 x17 -224 x8 x13 x14 -128 x8 x13 x15 -64 x8 x13 x16 -32 x8 x13 x17 -160 x8 x14 x15 -64 x8 x14 x16 -32 x8 x14 x17 -96 x8 x15 x16 -32 x8 x15 x17 -32 x8 x16 x17 -448 x9 x10 x11 -576 x9 x10 x12 -448 x9 x10 x13 -320 x9 x10 x14 -224 x9 x10 x15 -160 x9 x10 x16 -96 x9 x10 x17 -32 x9 x10 x18 -576 x9 x11 x12 -256 x9 x11 x13 -320 x9 x11 x14 -192 x9 x11 x15 -128 x9 x11 x16 -64 x9 x11 x17 -32 x9 x11 x18 -448 x9 x12 x13 -320 x9 x12 x14 -64 x9 x12 x15 -96 x9 x12 x16 -64 x9 x12 x17 -32 x9 x12 x18 -320 x9 x13 x14 -192 x9 x13 x15 -96 x9 x13 x16 -32 x9 x13 x18 -224 x9 x14 x15 -128 x9 x14 x16 -64 x9 x14 x17 -32 x9 x14 x18 -160 x9 x15 x16 -64 x9 x15 x17 -32 x9 x15 x18 -96 x9 x16 x17 -32 x9 x16 x18 -32 x9 x17 x18 -448 x10 x11 x12 -576 x10 x11 x13 -448 x10 x11 x14 -320 x10 x11 x15 -224 x10 x11 x16 -160 x10 x11 x17 -96 x10 x11 x18 -32 x10 x11 x19 -576 x10 x12 x13 -256 x10 x12 x14 -320 x10 x12 x15 -192 x10 x12 x16 -128 x10 x12 x17 -64 x10 x12 x18 -32 x10 x12 x19 -448 x10 x13 x14 -320 x10 x13 x15 -64 x10 x13 x16 -96 x10 x13 x17 -64 x10 x13 x18 -32 x10 x13 x19 -320 x10 x14 x15 -192 x10 x14 x16 -96 x10 x14 x17 -32 x10 x14 x19 -224 x10 x15 x16 -128 x10 x15 x17 -64 x10 x15 x18 -32 x10 x15 x19 -160 x10 x16 x17 -64 x10 x16 x18 -32 x10 x16 x19 -96 x10 x17 x18 -32 x10 x17 x19 -32 x10 x18 x19 -448 x11 x12 x13 -576 x11 x12 x14 -448 x11 x12 x15 -320 x11 x12 x16 -224 x11 x12 x17 -160 x11 x12 x18 -96 x11 x12 x19 -32 x11 x12 x20 -576 x11 x13 x14 -256 x11 x13 x15 -320 x11 x13 x16 -192 x11 x13 x17 -128 x11 x13 x18 -64 x11 x13 x19 -32 x11 x13 x20 -448 x11 x14 x15 -320 x11 x14 x16 -64 x11 x14 x17 -96 x11 x14 x18 -64 x11 x14 x19 -32 x11 x14 x20 -320 x11 x15 x16 -192 x11 x15 x17 -96 x11 x15 x18 -32 x11 x15 x20 -224 x11 x16 x17 -128 x11 x16 x18 -64 x11 x16 x19 -32 x11 x16 x20 -160 x11 x17 x18 -64 x11 x17 x19 -32 x11 x17 x20 -96 x11 x18 x19 -32 x11 x18 x20 -32 x11 x19 x20 -448 x12 x13 x14 -576 x12 x13 x15 -448 x12 x13 x16 -320 x12 x13 x17 -224 x12 x13 x18 -160 x12 x13 x19 -96 x12 x13 x20 -32 x12 x13 x21 -576 x12 x14 x15 -256 x12 x14 x16 -320 x12 x14 x17 -192 x12 x14 x18 -128 x12 x14 x19 -64 x12 x14 x20 -32 x12 x14 x21 -448 x12 x15 x16 -320 x12 x15 x17 -64 x12 x15 x18 -96 x12 x15 x19 -64 x12 x15 x20 -32 x12 x15 x21 -320 x12 x16 x17 -192 x12 x16 x18 -96 x12 x16 x19 -32 x12 x16 x21 -224 x12 x17 x18 -128 x12 x17 x19 -64 x12 x17 x20 -32 x12 x17 x21 -160 x12 x18 x19 -64 x12 x18 x20 -32 x12 x18 x21 -96 x12 x19 x20 -32 x12 x19 x21 -32 x12 x20 x21 -448 x13 x14 x15 -576 x13 x14 x16 -448 x13 x14 x17 -320 x13 x14 x18 -224 x13 x14 x19 -160 x13 x14 x20 -96 x13 x14 x21 -32 x13 x14 x22 -576 x13 x15 x16 -256 x13 x15 x17 -320 x13 x15 x18 -192 x13 x15 x19 -128 x13 x15 x20 -64 x13 x15 x21 -32 x13 x15 x22 -448 x13 x16 x17 -320 x13 x16 x18 -64 x13 x16 x19 -96 x13 x16 x20 -64 x13 x16 x21 -32 x13 x16 x22 -320 x13 x17 x18 -192 x13 x17 x19 -96 x13 x17 x20 -32 x13 x17 x22 -224 x13 x18 x19 -128 x13 x18 x20 -64 x13 x18 x21 -32 x13 x18 x22 -160 x13 x19 x20 -64 x13 x19 x21 -32 x13 x19 x22 -96 x13 x20 x21 -32 x13 x20 x22 -32 x13 x21 x22 -448 x14 x15 x16 -576 x14 x15 x17 -448 x14 x15 x18 -320 x14 x15 x19 -224 x14 x15 x20 -160 x14 x15 x21 -96 x14 x15 x22 -32 x14 x15 x23 -576 x14 x16 x17 -256 x14 x16 x18 -320 x14 x16 x19 -192 x14 x16 x20 -128 x14 x16 x21 -64 x14 x16 x22 -32 x14 x16 x23 -448 x14 x17 x18 -320 x14 x17 x19 -64 x14 x17 x20 -96 x14 x17 x21 -64 x14 x17 x22 -32 x14 x17 x23 -320 x14 x18 x19 -192 x14 x18 x20 -96 x14 x18 x21 -32 x14 x18 x23 -224 x14 x19 x20 -128 x14 x19 x21 -64 x14 x19 x22 -32 x14 x19 x23 -160 x14 x20 x21 -64 x14 x20 x22 -32 x14 x20 x23 -96 x14 x21 x22 -32 x14 x21 x23 -32 x14 x22 x23 -448 x15 x16 x17 -576 x15 x16 x18 -448 x15 x16 x19 -320 x15 x16 x20 -224 x15 x16 x21 -160 x15 x16 x22 -96 x15 x16 x23 -32 x15 x16 x24 -576 x15 x17 x18 -256 x15 x17 x19 -320 x15 x17 x20 -192 x15 x17 x21 -128 x15 x17 x22 -64 x15 x17 x23 -32 x15 x17 x24 -448 x15 x18 x19 -320 x15 x18 x20 -64 x15 x18 x21 -96 x15 x18 x22 -64 x15 x18 x23 -32 x15 x18 x24 -320 x15 x19 x20 -192 x15 x19 x21 -96 x15 x19 x22 -32 x15 x19 x24 -224 x15 x20 x21 -128 x15 x20 x22 -64 x15 x20 x23 -32 x15 x20 x24 -160 x15 x21 x22 -64 x15 x21 x23 -32 x15 x21 x24 -96 x15 x22 x23 -32 x15 x22 x24 -32 x15 x23 x24 -448 x16 x17 x18 -576 x16 x17 x19 -448 x16 x17 x20 -320 x16 x17 x21 -224 x16 x17 x22 -160 x16 x17 x23 -96 x16 x17 x24 -32 x16 x17 x25 -576 x16 x18 x19 -256 x16 x18 x20 -320 x16 x18 x21 -192 x16 x18 x22 -128 x16 x18 x23 -64 x16 x18 x24 -32 x16 x18 x25 -448 x16 x19 x20 -320 x16 x19 x21 -64 x16 x19 x22 -96 x16 x19 x23 -64 x16 x19 x24 -32 x16 x19 x25 -320 x16 x20 x21 -192 x16 x20 x22 -96 x16 x20 x23 -32 x16 x20 x25 -224 x16 x21 x22 -128 x16 x21 x23 -64 x16 x21 x24 -32 x16 x21 x25 -160 x16 x22 x23 -64 x16 x22 x24 -32 x16 x22 x25 -96 x16 x23 x24 -32 x16 x23 x25 -32 x16 x24 x25 -448 x17 x18 x19 -576 x17 x18 x20 -448 x17 x18 x21 -320 x17 x18 x22 -224 x17 x18 x23 -160 x17 x18 x24 -96 x17 x18 x25 -32 x17 x18 x26 -576 x17 x19 x20 -256 x17 x19 x21 -320 x17 x19 x22 -192 x17 x19 x23 -128 x17 x19 x24 -64 x17 x19 x25 -32 x17 x19 x26 -448 x17 x20 x21 -320 x17 x20 x22 -64 x17 x20 x23 -96 x17 x20 x24 -64 x17 x20 x25 -32 x17 x20 x26 -320 x17 x21 x22 -192 x17 x21 x23 -96 x17 x21 x24 -32 x17 x21 x26 -224 x17 x22 x23 -128 x17 x22 x24 -64 x17 x22 x25 -32 x17 x22 x26 -160 x17 x23 x24 -64 x17 x23 x25 -32 x17 x23 x26 -96 x17 x24 x25 -32 x17 x24 x26 -32 x17 x25 x26 -448 x18 x19 x20 -576 x18 x19 x21 -448 x18 x19 x22 -320 x18 x19 x23 -224 x18 x19 x24 -160 x18 x19 x25 -96 x18 x19 x26 -32 x18 x19 x27 -576 x18 x20 x21 -256 x18 x20 x22 -320 x18 x20 x23 -192 x18 x20 x24 -128 x18 x20 x25 -64 x18 x20 x26 -32 x18 x20 x27 -448 x18 x21 x22 -320 x18 x21 x23 -64 x18 x21 x24 -96 x18 x21 x25 -64 x18 x21 x26 -32 x18 x21 x27 -320 x18 x22 x23 -192 x18 x22 x24 -96 x18 x22 x25 -32 x18 x22 x27 -224 x18 x23 x24 -128 x18 x23 x25 -64 x18 x23 x26 -32 x18 x23 x27 -160 x18 x24 x25 -64 x18 x24 x26 -32 x18 x24 x27 -96 x18 x25 x26 -32 x18 x25 x27 -32 x18 x26 x27 -448 x19 x20 x21 -576 x19 x20 x22 -448 x19 x20 x23 -320 x19 x20 x24 -224 x19 x20 x25 -160 x19 x20 x26 -96 x19 x20 x27 -32 x19 x20 x28 -576 x19 x21 x22 -256 x19 x21 x23 -320 x19 x21 x24 -192 x19 x21 x25 -128 x19 x21 x26 -64 x19 x21 x27 -32 x19 x21 x28 -448 x19 x22 x23 -320 x19 x22 x24 -64 x19 x22 x25 -96 x19 x22 x26 -64 x19 x22 x27 -32 x19 x22 x28 -320 x19 x23 x24 -192 x19 x23 x25 -96 x19 x23 x26 -32 x19 x23 x28 -224 x19 x24 x25 -128 x19 x24 x26 -64 x19 x24 x27 -32 x19 x24 x28 -160 x19 x25 x26 -64 x19 x25 x27 -32 x19 x25 x28 -96 x19 x26 x27 -32 x19 x26 x28 -32 x19 x27 x28 -448 x20 x21 x22 -576 x20 x21 x23 -448 x20 x21 x24 -320 x20 x21 x25 -224 x20 x21 x26 -160 x20 x21 x27 -96 x20 x21 x28 -32 x20 x21 x29 -576 x20 x22 x23 -256 x20 x22 x24 -320 x20 x22 x25 -192 x20 x22 x26 -128 x20 x22 x27 -64 x20 x22 x28 -32 x20 x22 x29 -448 x20 x23 x24 -320 x20 x23 x25 -64 x20 x23 x26 -96 x20 x23 x27 -64 x20 x23 x28 -32 x20 x23 x29 -320 x20 x24 x25 -192 x20 x24 x26 -96 x20 x24 x27 -32 x20 x24 x29 -224 x20 x25 x26 -128 x20 x25 x27 -64 x20 x25 x28 -32 x20 x25 x29 -160 x20 x26 x27 -64 x20 x26 x28 -32 x20 x26 x29 -96 x20 x27 x28 -32 x20 x27 x29 -32 x20 x28 x29 -448 x21 x22 x23 -576 x21 x22 x24 -448 x21 x22 x25 -320 x21 x22 x26 -224 x21 x22 x27 -160 x21 x22 x28 -96 x21 x22 x29 -32 x21 x22 x30 -576 x21 x23 x24 -256 x21 x23 x25 -320 x21 x23 x26 -192 x21 x23 x27 -128 x21 x23 x28 -64 x21 x23 x29 -32 x21 x23 x30 -448 x21 x24 x25 -320 x21 x24 x26 -64 x21 x24 x27 -96 x21 x24 x28 -64 x21 x24 x29 -32 x21 x24 x30 -320 x21 x25 x26 -192 x21 x25 x27 -96 x21 x25 x28 -32 x21 x25 x30 -224 x21 x26 x27 -128 x21 x26 x28 -64 x21 x26 x29 -32 x21 x26 x30 -160 x21 x27 x28 -64 x21 x27 x29 -32 x21 x27 x30 -96 x21 x28 x29 -32 x21 x28 x30 -32 x21 x29 x30 -448 x22 x23 x24 -576 x22 x23 x25 -448 x22 x23 x26 -320 x22 x23 x27 -224 x22 x23 x28 -160 x22 x23 x29 -96 x22 x23 x30 -32 x22 x23 x31 -576 x22 x24 x25 -256 x22 x24 x26 -320 x22 x24 x27 -192 x22 x24 x28 -128 x22 x24 x29 -64 x22 x24 x30 -32 x22 x24 x31 -448 x22 x25 x26 -320 x22 x25 x27 -64 x22 x25 x28 -96 x22 x25 x29 -64 x22 x25 x30 -32 x22 x25 x31 -320 x22 x26 x27 -192 x22 x26 x28 -96 x22 x26 x29 -32 x22 x26 x31 -224 x22 x27 x28 -128 x22 x27 x29 -64 x22 x27 x30 -32 x22 x27 x31 -160 x22 x28 x29 -64 x22 x28 x30 -32 x22 x28 x31 -96 x22 x29 x30 -32 x22 x29 x31 -32 x22 x30 x31 -448 x23 x24 x25 -576 x23 x24 x26 -448 x23 x24 x27 -320 x23 x24 x28 -224 x23 x24 x29 -160 x23 x24 x30 -96 x23 x24 x31 -32 x23 x24 x32 -576 x23 x25 x26 -256 x23 x25 x27 -320 x23 x25 x28 -192 x23 x25 x29 -128 x23 x25 x30 -64 x23 x25 x31 -32 x23 x25 x32 -448 x23 x26 x27 -320 x23 x26 x28 -64 x23 x26 x29 -96 x23 x26 x30 -64 x23 x26 x31 -32 x23 x26 x32 -320 x23 x27 x28 -192 x23 x27 x29 -96 x23 x27 x30 -32 x23 x27 x32 -224 x23 x28 x29 -128 x23 x28 x30 -64 x23 x28 x31 -32 x23 x28 x32 -160 x23 x29 x30 -64 x23 x29 x31 -32 x23 x29 x32 -96 x23 x30 x31 -32 x23 x30 x32 -32 x23 x31 x32 -448 x24 x25 x26 -576 x24 x25 x27 -448 x24 x25 x28 -320 x24 x25 x29 -224 x24 x25 x30 -160 x24 x25 x31 -96 x24 x25 x32 -32 x24 x25 x33 -576 x24 x26 x27 -256 x24 x26 x28 -320 x24 x26 x29 -192 x24 x26 x30 -128 x24 x26 x31 -64 x24 x26 x32 -32 x24 x26 x33 -448 x24 x27 x28 -320 x24 x27 x29 -64 x24 x27 x30 -96 x24 x27 x31 -64 x24 x27 x32 -32 x24 x27 x33 -320 x24 x28 x29 -192 x24 x28 x30 -96 x24 x28 x31 -32 x24 x28 x33 -224 x24 x29 x30 -128 x24 x29 x31 -64 x24 x29 x32 -32 x24 x29 x33 -160 x24 x30 x31 -64 x24 x30 x32 -32 x24 x30 x33 -96 x24 x31 x32 -32 x24 x31 x33 -32 x24 x32 x33 -448 x25 x26 x27 -576 x25 x26 x28 -448 x25 x26 x29 -320 x25 x26 x30 -224 x25 x26 x31 -160 x25 x26 x32 -96 x25 x26 x33 -32 x25 x26 x34 -576 x25 x27 x28 -256 x25 x27 x29 -320 x25 x27 x30 -192 x25 x27 x31 -128 x25 x27 x32 -64 x25 x27 x33 -32 x25 x27 x34 -448 x25 x28 x29 -320 x25 x28 x30 -64 x25 x28 x31 -96 x25 x28 x32 -64 x25 x28 x33 -32 x25 x28 x34 -320 x25 x29 x30 -192 x25 x29 x31 -96 x25 x29 x32 -32 x25 x29 x34 -224 x25 x30 x31 -128 x25 x30 x32 -64 x25 x30 x33 -32 x25 x30 x34 -160 x25 x31 x32 -64 x25 x31 x33 -32 x25 x31 x34 -96 x25 x32 x33 -32 x25 x32 x34 -32 x25 x33 x34 -448 x26 x27 x28 -576 x26 x27 x29 -448 x26 x27 x30 -320 x26 x27 x31 -224 x26 x27 x32 -160 x26 x27 x33 -96 x26 x27 x34 -32 x26 x27 x35 -576 x26 x28 x29 -256 x26 x28 x30 -320 x26 x28 x31 -192 x26 x28 x32 -128 x26 x28 x33 -64 x26 x28 x34 -32 x26 x28 x35 -448 x26 x29 x30 -320 x26 x29 x31 -64 x26 x29 x32 -96 x26 x29 x33 -64 x26 x29 x34 -32 x26 x29 x35 -320 x26 x30 x31 -192 x26 x30 x32 -96 x26 x30 x33 -32 x26 x30 x35 -224 x26 x31 x32 -128 x26 x31 x33 -64 x26 x31 x34 -32 x26 x31 x35 -160 x26 x32 x33 -64 x26 x32 x34 -32 x26 x32 x35 -96 x26 x33 x34 -32 x26 x33 x35 -32 x26 x34 x35 -448 x27 x28 x29 -576 x27 x28 x30 -448 x27 x28 x31 -320 x27 x28 x32 -224 x27 x28 x33 -160 x27 x28 x34 -96 x27 x28 x35 -32 x27 x28 x36 -576 x27 x29 x30 -256 x27 x29 x31 -320 x27 x29 x32 -192 x27 x29 x33 -128 x27 x29 x34 -64 x27 x29 x35 -32 x27 x29 x36 -448 x27 x30 x31 -320 x27 x30 x32 -64 x27 x30 x33 -96 x27 x30 x34 -64 x27 x30 x35 -32 x27 x30 x36 -320 x27 x31 x32 -192 x27 x31 x33 -96 x27 x31 x34 -32 x27 x31 x36 -224 x27 x32 x33 -128 x27 x32 x34 -64 x27 x32 x35 -32 x27 x32 x36 -160 x27 x33 x34 -64 x27 x33 x35 -32 x27 x33 x36 -96 x27 x34 x35 -32 x27 x34 x36 -32 x27 x35 x36 -448 x28 x29 x30 -576 x28 x29 x31 -448 x28 x29 x32 -320 x28 x29 x33 -224 x28 x29 x34 -160 x28 x29 x35 -96 x28 x29 x36 -32 x28 x29 x37 -576 x28 x30 x31 -256 x28 x30 x32 -320 x28 x30 x33 -192 x28 x30 x34 -128 x28 x30 x35 -64 x28 x30 x36 -32 x28 x30 x37 -448 x28 x31 x32 -320 x28 x31 x33 -64 x28 x31 x34 -96 x28 x31 x35 -64 x28 x31 x36 -32 x28 x31 x37 -320 x28 x32 x33 -192 x28 x32 x34 -96 x28 x32 x35 -32 x28 x32 x37 -224 x28 x33 x34 -128 x28 x33 x35 -64 x28 x33 x36 -32 x28 x33 x37 -160 x28 x34 x35 -64 x28 x34 x36 -32 x28 x34 x37 -96 x28 x35 x36 -32 x28 x35 x37 -32 x28 x36 x37 -448 x29 x30 x31 -576 x29 x30 x32 -448 x29 x30 x33 -320 x29 x30 x34 -224 x29 x30 x35 -160 x29 x30 x36 -96 x29 x30 x37 -32 x29 x30 x38 -576 x29 x31 x32 -256 x29 x31 x33 -320 x29 x31 x34 -192 x29 x31 x35 -128 x29 x31 x36 -64 x29 x31 x37 -32 x29 x31 x38 -448 x29 x32 x33 -320 x29 x32 x34 -64 x29 x32 x35 -96 x29 x32 x36 -64 x29 x32 x37 -32 x29 x32 x38 -320 x29 x33 x34 -192 x29 x33 x35 -96 x29 x33 x36 -32 x29 x33 x38 -224 x29 x34 x35 -128 x29 x34 x36 -64 x29 x34 x37 -32 x29 x34 x38 -160 x29 x35 x36 -64 x29 x35 x37 -32 x29 x35 x38 -96 x29 x36 x37 -32 x29 x36 x38 -32 x29 x37 x38 -448 x30 x31 x32 -576 x30 x31 x33 -448 x30 x31 x34 -320 x30 x31 x35 -224 x30 x31 x36 -160 x30 x31 x37 -96 x30 x31 x38 -32 x30 x31 x39 -576 x30 x32 x33 -256 x30 x32 x34 -320 x30 x32 x35 -192 x30 x32 x36 -128 x30 x32 x37 -64 x30 x32 x38 -32 x30 x32 x39 -448 x30 x33 x34 -320 x30 x33 x35 -64 x30 x33 x36 -96 x30 x33 x37 -64 x30 x33 x38 -32 x30 x33 x39 -320 x30 x34 x35 -192 x30 x34 x36 -96 x30 x34 x37 -32 x30 x34 x39 -224 x30 x35 x36 -128 x30 x35 x37 -64 x30 x35 x38 -32 x30 x35 x39 -160 x30 x36 x37 -64 x30 x36 x38 -32 x30 x36 x39 -96 x30 x37 x38 -32 x30 x37 x39 -32 x30 x38 x39 -448 x31 x32 x33 -576 x31 x32 x34 -448 x31 x32 x35 -320 x31 x32 x36 -224 x31 x32 x37 -160 x31 x32 x38 -96 x31 x32 x39 -32 x31 x32 x40 -576 x31 x33 x34 -256 x31 x33 x35 -320 x31 x33 x36 -192 x31 x33 x37 -128 x31 x33 x38 -64 x31 x33 x39 -32 x31 x33 x40 -448 x31 x34 x35 -320 x31 x34 x36 -64 x31 x34 x37 -96 x31 x34 x38 -64 x31 x34 x39 -32 x31 x34 x40 -320 x31 x35 x36 -192 x31 x35 x37 -96 x31 x35 x38 -32 x31 x35 x40 -224 x31 x36 x37 -128 x31 x36 x38 -64 x31 x36 x39 -32 x31 x36 x40 -160 x31 x37 x38 -64 x31 x37 x39 -32 x31 x37 x40 -96 x31 x38 x39 -32 x31 x38 x40 -32 x31 x39 x40 -416 x32 x33 x34 -512 x32 x33 x35 -384 x32 x33 x36 -256 x32 x33 x37 -160 x32 x33 x38 -96 x32 x33 x39 -32 x32 x33 x40 -512 x32 x34 x35 -224 x32 x34 x36 -256 x32 x34 x37 -128 x32 x34 x38 -64 x32 x34 x39 -32 x32 x34 x40 -384 x32 x35 x36 -256 x32 x35 x37 -32 x32 x35 x38 -64 x32 x35 x39 -32 x32 x35 x40 -256 x32 x36 x37 -160 x32 x36 x38 -64 x32 x36 x39 -192 x32 x37 x38 -96 x32 x37 x39 -32 x32 x37 x40 -128 x32 x38 x39 -32 x32 x38 x40 -64 x32 x39 x40 -352 x33 x34 x35 -448 x33 x34 x36 -320 x33 x34 x37 -192 x33 x34 x38 -96 x33 x34 x39 -32 x33 x34 x40 -416 x33 x35 x36 -192 x33 x35 x37 -192 x33 x35 x38 -64 x33 x35 x39 -32 x33 x35 x40 -288 x33 x36 x37 -192 x33 x36 x38 -32 x33 x36 x39 -32 x33 x36 x40 -192 x33 x37 x38 -128 x33 x37 x39 -32 x33 x37 x40 -128 x33 x38 x39 -64 x33 x38 x40 -64 x33 x39 x40 -288 x34 x35 x36 -352 x34 x35 x37 -256 x34 x35 x38 -128 x34 x35 x39 -32 x34 x35 x40 -320 x34 x36 x37 -128 x34 x36 x38 -128 x34 x36 x39 -32 x34 x36 x40 -192 x34 x37 x38 -128 x34 x37 x39 -32 x34 x37 x40 -128 x34 x38 x39 -64 x34 x38 x40 -64 x34 x39 x40 -224 x35 x36 x37 -256 x35 x36 x38 -160 x35 x36 x39 -64 x35 x36 x40 -224 x35 x37 x38 -64 x35 x37 x39 -64 x35 x37 x40 -128 x35 x38 x39 -64 x35 x38 x40 -64 x35 x39 x40 -160 x36 x37 x38 -160 x36 x37 x39 -64 x36 x37 x40 -128 x36 x38 x39 -32 x36 x38 x40 -64 x36 x39 x40 -96 x37 x38 x39 -64 x37 x38 x40 -64 x37 x39 x40 -32 x38 x39 x40 +112 x1 x2 +104 x1 x3 +96 x1 x4 +88 x1 x5 +96 x1 x6 +88 x1 x7 +80 x1 x8 +72 x1 x9 +64 x1 x10 +224 x2 x3 +224 x2 x4 +208 x2 x5 +192 x2 x6 +208 x2 x7 +192 x2 x8 +176 x2 x9 +144 x2 x10 +64 x2 x11 +352 x3 x4 +344 x3 x5 +336 x3 x6 +328 x3 x7 +336 x3 x8 +296 x3 x9 +256 x3 x10 +144 x3 x11 +64 x3 x12 +496 x4 x5 +480 x4 x6 +464 x4 x7 +464 x4 x8 +448 x4 x9 +384 x4 x10 +256 x4 x11 +144 x4 x12 +64 x4 x13 +656 x5 x6 +616 x5 x7 +592 x5 x8 +568 x5 x9 +544 x5 x10 +384 x5 x11 +256 x5 x12 +144 x5 x13 +64 x5 x14 +800 x6 x7 +736 x6 x8 +704 x6 x9 +656 x6 x10 +544 x6 x11 +384 x6 x12 +256 x6 x13 +144 x6 x14 +64 x6 x15 +928 x7 x8 +856 x7 x9 +800 x7 x10 +656 x7 x11 +544 x7 x12 +384 x7 x13 +256 x7 x14 +144 x7 x15 +64 x7 x16 +1040 x8 x9 +960 x8 x10 +800 x8 x11 +656 x8 x12 +544 x8 x13 +384 x8 x14 +256 x8 x15 +144 x8 x16 +64 x8 x17 +1152 x9 x10 +960 x9 x11 +800 x9 x12 +656 x9 x13 +544 x9 x14 +384 x9 x15 +256 x9 x16 +144 x9 x17 +64 x9 x18 +1152 x10 x11 +960 x10 x12 +800 x10 x13 +656 x10 x14 +544 x10 x15 +384 x10 x16 +256 x10 x17 +144 x10 x18 +64 x10 x19 +1152 x11 x12 +960 x11 x13 +800 x11 x14 +656 x11 x15 +544 x11 x16 +384 x11 x17 +256 x11 x18 +144 x11 x19 +64 x11 x20 +1152 x12 x13 +960 x12 x14 +800 x12 x15 +656 x12 x16 +544 x12 x17 +384 x12 x18 +256 x12 x19 +144 x12 x20 +64 x12 x21 +1152 x13 x14 +960 x13 x15 +800 x13 x16 +656 x13 x17 +544 x13 x18 +384 x13 x19 +256 x13 x20 +144 x13 x21 +64 x13 x22 +1152 x14 x15 +960 x14 x16 +800 x14 x17 +656 x14 x18 +544 x14 x19 +384 x14 x20 +256 x14 x21 +144 x14 x22 +64 x14 x23 +1152 x15 x16 +960 x15 x17 +800 x15 x18 +656 x15 x19 +544 x15 x20 +384 x15 x21 +256 x15 x22 +144 x15 x23 +64 x15 x24 +1152 x16 x17 +960 x16 x18 +800 x16 x19 +656 x16 x20 +544 x16 x21 +384 x16 x22 +256 x16 x23 +144 x16 x24 +64 x16 x25 +1152 x17 x18 +960 x17 x19 +800 x17 x20 +656 x17 x21 +544 x17 x22 +384 x17 x23 +256 x17 x24 +144 x17 x25 +64 x17 x26 +1152 x18 x19 +960 x18 x20 +800 x18 x21 +656 x18 x22 +544 x18 x23 +384 x18 x24 +256 x18 x25 +144 x18 x26 +64 x18 x27 +1152 x19 x20 +960 x19 x21 +800 x19 x22 +656 x19 x23 +544 x19 x24 +384 x19 x25 +256 x19 x26 +144 x19 x27 +64 x19 x28 +1152 x20 x21 +960 x20 x22 +800 x20 x23 +656 x20 x24 +544 x20 x25 +384 x20 x26 +256 x20 x27 +144 x20 x28 +64 x20 x29 +1152 x21 x22 +960 x21 x23 +800 x21 x24 +656 x21 x25 +544 x21 x26 +384 x21 x27 +256 x21 x28 +144 x21 x29 +64 x21 x30 +1152 x22 x23 +960 x22 x24 +800 x22 x25 +656 x22 x26 +544 x22 x27 +384 x22 x28 +256 x22 x29 +144 x22 x30 +64 x22 x31 +1152 x23 x24 +960 x23 x25 +800 x23 x26 +656 x23 x27 +544 x23 x28 +384 x23 x29 +256 x23 x30 +144 x23 x31 +64 x23 x32 +1152 x24 x25 +960 x24 x26 +800 x24 x27 +656 x24 x28 +544 x24 x29 +384 x24 x30 +256 x24 x31 +144 x24 x32 +64 x24 x33 +1152 x25 x26 +960 x25 x27 +800 x25 x28 +656 x25 x29 +544 x25 x30 +384 x25 x31 +256 x25 x32 +144 x25 x33 +64 x25 x34 +1152 x26 x27 +960 x26 x28 +800 x26 x29 +656 x26 x30 +544 x26 x31 +384 x26 x32 +256 x26 x33 +144 x26 x34 +64 x26 x35 +1152 x27 x28 +960 x27 x29 +800 x27 x30 +656 x27 x31 +544 x27 x32 +384 x27 x33 +256 x27 x34 +144 x27 x35 +64 x27 x36 +1152 x28 x29 +960 x28 x30 +800 x28 x31 +656 x28 x32 +544 x28 x33 +384 x28 x34 +256 x28 x35 +144 x28 x36 +64 x28 x37 +1152 x29 x30 +960 x29 x31 +800 x29 x32 +656 x29 x33 +544 x29 x34 +384 x29 x35 +256 x29 x36 +144 x29 x37 +64 x29 x38 +1152 x30 x31 +960 x30 x32 +800 x30 x33 +656 x30 x34 +544 x30 x35 +384 x30 x36 +256 x30 x37 +144 x30 x38 +64 x30 x39 +1152 x31 x32 +960 x31 x33 +800 x31 x34 +656 x31 x35 +544 x31 x36 +384 x31 x37 +256 x31 x38 +144 x31 x39 +64 x31 x40 +1040 x32 x33 +856 x32 x34 +704 x32 x35 +568 x32 x36 +448 x32 x37 +296 x32 x38 +176 x32 x39 +72 x32 x40 +928 x33 x34 +736 x33 x35 +592 x33 x36 +464 x33 x37 +336 x33 x38 +192 x33 x39 +80 x33 x40 +800 x34 x35 +616 x34 x36 +464 x34 x37 +328 x34 x38 +208 x34 x39 +88 x34 x40 +656 x35 x36 +480 x35 x37 +336 x35 x38 +192 x35 x39 +96 x35 x40 +496 x36 x37 +344 x36 x38 +208 x36 x39 +88 x36 x40 +352 x37 x38 +224 x37 x39 +96 x37 x40 +224 x38 x39 +104 x38 x40 +112 x39 x40 -144 x1 -312 x2 -496 x3 -688 x4 -880 x5 -1072 x6 -1264 x7 -1448 x8 -1616 x9 -1760 x10 -1760 x11 -1760 x12 -1760 x13 -1760 x14 -1760 x15 -1760 x16 -1760 x17 -1760 x18 -1760 x19 -1760 x20 -1760 x21 -1760 x22 -1760 x23 -1760 x24 -1760 x25 -1760 x26 -1760 x27 -1760 x28 -1760 x29 -1760 x30 -1760 x31 -1616 x32 -1448 x33 -1264 x34 -1072 x35 -880 x36 -688 x37 -496 x38 -312 x39 -144 x40 ;
+1 x1 >= 0 ;
